0,141,124,429,460,139,163,320,510,485,292
141,0,350,540,445,505,263,135,143,170,136
124,350,0,523,387,128,162,69,361,236,158
429,540,523,0,221,330,59,181,383,121,123
460,445,387,221,0,332,451,210,195,491,122
139,505,128,330,332,0,516,127,353,344,490
163,263,162,59,451,516,0,504,289,62,140
320,135,69,181,210,127,504,0,333,263,183
510,143,361,383,195,353,289,333,0,478,190
485,170,236,121,491,344,62,263,478,0,393
292,136,158,123,122,490,140,183,190,393,0
